c This Formular is generated by mcnf
c
c    horn? no 
c    forced? no 
c    mixed sat? no 
c    clause length = 3 
c
p cnf 20  91 
 -11 9 12 0
-7 -17 -18 0
-13 -17 20 0
-4 -16 12 0
8 2 14 0
-9 -19 14 0
7 4 18 0
-19 -16 5 0
-1 -16 17 0
-2 20 -11 0
-20 9 -17 0
-14 -15 -17 0
19 -18 15 0
6 15 -2 0
12 8 -14 0
-1 -2 -3 0
11 -8 5 0
6 18 -1 0
7 -11 8 0
1 5 15 0
4 10 12 0
%
0

32 28 12 73 44 25 60 58 22 23 34 97 36 30 7 60 21 92 36 10
